decision_x1=[0,4];
decision_x2=[0,4];
decision_x3=[0,4];
decision_x4=[0,4];
decision_x5=[0,4];
decision_x6=[0,4];
decision_x7=[0,4];
decision_x8=[0,4];
decision_x9=[0,4];
decision_x10=[0,4];
random_y1=[0,4];
random_y2=[0,4];
constraint_x2_x1=[
0,1,1.4|
0,2,4.6|
0,3,5.5|
0,4,9.1|
1,0,8.7|
1,2,5.7|
1,3,2.8|
1,4,1.3|
2,0,9.4|
2,1,0.87|
2,3,0.023|
2,4,3.8|
3,0,3.2|
3,1,0.93|
3,2,9.4|
3,4,0.59|
4,0,0.74|
4,1,0.88|
4,2,8|
4,3,5.8|
];
constraint_x3_x1=[
0,1,9.3|
0,2,3.7|
0,3,6.5|
0,4,6.5|
1,0,9.1|
1,2,2.2|
1,3,6.8|
1,4,2.3|
2,0,8.3|
2,1,2.3|
2,3,3.6|
2,4,9.2|
3,0,8.8|
3,1,1.8|
3,2,4.9|
3,4,8.7|
4,0,0.89|
4,1,9.7|
4,2,7.2|
4,3,3|
];
constraint_x3_x2=[
0,1,0.29|
0,2,2.7|
0,3,0.69|
0,4,8.3|
1,0,3.5|
1,2,1.8|
1,3,0.029|
1,4,9.6|
2,0,5.1|
2,1,2.2|
2,3,4.5|
2,4,1.3|
3,0,9.5|
3,1,0.88|
3,2,1.3|
3,4,6.2|
4,0,4.2|
4,1,1.6|
4,2,0.33|
4,3,9|
];
constraint_x4_x2=[
0,1,4.7|
0,2,6.5|
0,3,1.1|
0,4,6.3|
1,0,5.6|
1,2,4.8|
1,3,1.4|
1,4,6.4|
2,0,3.5|
2,1,6.6|
2,3,5.6|
2,4,1.8|
3,0,4.1|
3,1,1.6|
3,2,6.2|
3,4,8|
4,0,5.8|
4,1,7.8|
4,2,2.9|
4,3,8.3|
];
constraint_x4_x3=[
0,1,9.6|
0,2,0.35|
0,3,4.5|
0,4,8.3|
1,0,0.23|
1,2,0.89|
1,3,2|
1,4,9.5|
2,0,9.9|
2,1,9.3|
2,3,3.4|
2,4,5.9|
3,0,4.6|
3,1,1.9|
3,2,5|
3,4,2.9|
4,0,6.2|
4,1,9.7|
4,2,5.4|
4,3,2.3|
];
constraint_x5_x2=[
0,1,4.5|
0,2,3.5|
0,3,6.3|
0,4,4|
1,0,3.7|
1,2,6.2|
1,3,6.8|
1,4,5.9|
2,0,0.48|
2,1,1.7|
2,3,8.4|
2,4,1.6|
3,0,6.8|
3,1,4.8|
3,2,9.5|
3,4,8|
4,0,2.9|
4,1,5.8|
4,2,7.5|
4,3,1.6|
];
constraint_x5_x4=[
0,1,9.9|
0,2,7.6|
0,3,5.7|
0,4,9.8|
1,0,6.6|
1,2,9.9|
1,3,3.4|
1,4,5|
2,0,4|
2,1,0.71|
2,3,9.9|
2,4,9.8|
3,0,4.8|
3,1,6.4|
3,2,9.2|
3,4,0.89|
4,0,3.4|
4,1,5.4|
4,2,0.32|
4,3,9.2|
];
constraint_x6_x1=[
0,1,3.4|
0,2,3.3|
0,3,3.6|
0,4,7.3|
1,0,3.2|
1,2,5.8|
1,3,4.3|
1,4,0.82|
2,0,6.2|
2,1,0.84|
2,3,2.2|
2,4,8.9|
3,0,1.8|
3,1,3.1|
3,2,2.3|
3,4,5.6|
4,0,4.7|
4,1,9.1|
4,2,6.7|
4,3,6.6|
];
constraint_x6_x3=[
0,1,3.7|
0,2,8|
0,3,8.5|
0,4,0.36|
1,0,3.6|
1,2,8.6|
1,3,3|
1,4,5.3|
2,0,8.4|
2,1,0.76|
2,3,4.6|
2,4,1.1|
3,0,3.1|
3,1,6.7|
3,2,8.1|
3,4,0.74|
4,0,9.4|
4,1,0.73|
4,2,5.6|
4,3,8.7|
];
constraint_x6_x4=[
0,1,0.81|
0,2,9.8|
0,3,9.8|
0,4,9.1|
1,0,5|
1,2,0.88|
1,3,6.3|
1,4,4.5|
2,0,6.1|
2,1,6|
2,3,7.8|
2,4,1.1|
3,0,2.7|
3,1,9.5|
3,2,6|
3,4,4.2|
4,0,8.9|
4,1,9.6|
4,2,0.69|
4,3,1.9|
];
constraint_x7_x1=[
0,1,0.6|
0,2,7.7|
0,3,2.5|
0,4,6.1|
1,0,9.7|
1,2,0.14|
1,3,7|
1,4,1.2|
2,0,1.4|
2,1,7.7|
2,3,0.8|
2,4,6.2|
3,0,2.7|
3,1,6.2|
3,2,1.5|
3,4,5.3|
4,0,0.082|
4,1,7.8|
4,2,2.7|
4,3,7.2|
];
constraint_x7_x3=[
0,1,1|
0,2,9|
0,3,7|
0,4,5.9|
1,0,2.2|
1,2,5|
1,3,0.94|
1,4,3.1|
2,0,9|
2,1,0.74|
2,3,2.3|
2,4,8.9|
3,0,3.9|
3,1,7.8|
3,2,3.7|
3,4,2.7|
4,0,7.7|
4,1,9.2|
4,2,8|
4,3,6|
];
constraint_x7_x5=[
0,1,2|
0,2,7|
0,3,1.3|
0,4,10|
1,0,6.6|
1,2,3.1|
1,3,3.7|
1,4,5.3|
2,0,9|
2,1,1.2|
2,3,9.5|
2,4,1.3|
3,0,0.92|
3,1,6.2|
3,2,3.1|
3,4,8.4|
4,0,0.78|
4,1,3.4|
4,2,4.4|
4,3,9.3|
];
constraint_x8_x2=[
0,1,1|
0,2,3.1|
0,3,1.2|
0,4,6.6|
1,0,3.5|
1,2,2.4|
1,3,7.6|
1,4,9.8|
2,0,5.9|
2,1,6.8|
2,3,0.033|
2,4,5.6|
3,0,0.23|
3,1,0.58|
3,2,6.2|
3,4,8.1|
4,0,1.8|
4,1,4.5|
4,2,8.5|
4,3,9.4|
];
constraint_x8_x5=[
0,1,3.1|
0,2,3.3|
0,3,7.8|
0,4,5.2|
1,0,8.9|
1,2,5.7|
1,3,7.4|
1,4,3.2|
2,0,6.9|
2,1,8.9|
2,3,3.2|
2,4,5.8|
3,0,4|
3,1,1.4|
3,2,0.71|
3,4,6.6|
4,0,1.5|
4,1,0.45|
4,2,2.2|
4,3,6.2|
];
constraint_x8_x6=[
0,1,4.7|
0,2,9.6|
0,3,3.8|
0,4,6.9|
1,0,9|
1,2,5.1|
1,3,8.7|
1,4,5.1|
2,0,6.2|
2,1,4.3|
2,3,6|
2,4,6.6|
3,0,6.2|
3,1,2.8|
3,2,8.8|
3,4,6.8|
4,0,7.3|
4,1,9.6|
4,2,5.5|
4,3,0.64|
];
constraint_x8_x7=[
0,1,9|
0,2,8.5|
0,3,3.5|
0,4,3.3|
1,0,5.6|
1,2,1.5|
1,3,1.2|
1,4,8.8|
2,0,5.5|
2,1,0.94|
2,3,5.1|
2,4,0.62|
3,0,1.5|
3,1,9.8|
3,2,1.6|
3,4,1.5|
4,0,8.8|
4,1,8.1|
4,2,6|
4,3,8|
];
constraint_x9_x1=[
0,1,8.8|
0,2,7|
0,3,3.8|
0,4,1.9|
1,0,7.1|
1,2,2.3|
1,3,0.4|
1,4,7.4|
2,0,3.3|
2,1,7.5|
2,3,8.9|
2,4,1.2|
3,0,6.9|
3,1,3|
3,2,7.6|
3,4,0.29|
4,0,8.3|
4,1,5.8|
4,2,4.2|
4,3,2.2|
];
constraint_x9_x4=[
0,1,6.3|
0,2,1|
0,3,5.7|
0,4,5|
1,0,1.3|
1,2,6.3|
1,3,7.8|
1,4,2.9|
2,0,5.5|
2,1,8.5|
2,3,3.3|
2,4,7.7|
3,0,3.3|
3,1,5.7|
3,2,8.9|
3,4,3.7|
4,0,7.8|
4,1,0.73|
4,2,8.3|
4,3,9.9|
];
constraint_x9_x5=[
0,1,2.2|
0,2,3.9|
0,3,2.1|
0,4,2.5|
1,0,9.1|
1,2,0.86|
1,3,0.99|
1,4,1.3|
2,0,9.1|
2,1,4.4|
2,3,9.4|
2,4,4.3|
3,0,0.13|
3,1,1.3|
3,2,9.8|
3,4,1.9|
4,0,0.76|
4,1,5.7|
4,2,3|
4,3,5.3|
];
constraint_x9_x6=[
0,1,9.4|
0,2,5.1|
0,3,7.9|
0,4,6.3|
1,0,3.9|
1,2,4.4|
1,3,1.8|
1,4,5.5|
2,0,8|
2,1,7.6|
2,3,9.6|
2,4,5.3|
3,0,2.5|
3,1,0.96|
3,2,6.1|
3,4,7.2|
4,0,8.4|
4,1,2.3|
4,2,6.5|
4,3,5.8|
];
constraint_x10_x2=[
0,1,6.2|
0,2,3.9|
0,3,1|
0,4,4.8|
1,0,4|
1,2,1.9|
1,3,6.7|
1,4,5.7|
2,0,0.64|
2,1,8.8|
2,3,5.1|
2,4,3.6|
3,0,2|
3,1,8.2|
3,2,1.3|
3,4,4.9|
4,0,3.3|
4,1,9.7|
4,2,3.1|
4,3,3.1|
];
constraint_x10_x5=[
0,1,4.1|
0,2,6.1|
0,3,0.21|
0,4,4|
1,0,7.4|
1,2,7.8|
1,3,5.1|
1,4,1.4|
2,0,7.3|
2,1,4.7|
2,3,6.6|
2,4,8.1|
3,0,1.2|
3,1,1.1|
3,2,2.1|
3,4,7.5|
4,0,4.4|
4,1,0.09|
4,2,7.9|
4,3,8.5|
];
constraint_x1_y1=[
0,0,9.8|
0,1,0.85|
0,2,6.9|
0,3,7.3|
0,4,0.96|
1,0,4.1|
1,1,8.7|
1,2,2.4|
1,3,7.1|
1,4,6.9|
2,0,5.6|
2,1,8.8|
2,2,6.7|
2,3,8.6|
2,4,0.055|
3,0,7.3|
3,1,7.6|
3,2,1.3|
3,3,7.3|
3,4,3|
4,0,9.2|
4,1,0.96|
4,2,8.2|
4,3,8.5|
4,4,5.3|
];
constraint_x2_y2=[
0,0,9|
0,1,6.5|
0,2,3.1|
0,3,8.2|
0,4,8.1|
1,0,8.1|
1,1,8.1|
1,2,0.18|
1,3,2.6|
1,4,1.5|
2,0,9|
2,1,3.1|
2,2,9.9|
2,3,3.5|
2,4,5.3|
3,0,1.2|
3,1,2|
3,2,8.9|
3,3,8.1|
3,4,7|
4,0,8.9|
4,1,5.6|
4,2,8.3|
4,3,9.3|
4,4,5.6|
];
initial_distribution_y1=[0.14,0.094,0.23,0.22,0.32];
initial_distribution_y2=[0.26,0.17,0.019,0.3,0.25];
transition_y1=[
0.24,0.092,0.39,0.18,0.096|
0.21,0.095,0.17,0.12,0.41|
0.14,0.17,0.29,0.19,0.22|
0.24,0.061,0.32,0.17,0.2|
0.3,0.28,0.029,0.14,0.25|
];
transition_y2=[
0.26,0.091,0.26,0.27,0.12|
0.24,0.25,0.12,0.25,0.15|
0.22,0.048,0.25,0.23,0.25|
0.22,0.21,0.042,0.16,0.37|
0.2,0.26,0.19,0.088,0.27|
];
